clingo version 5.6.2
Reading from ...togen_asp_scripts/ijp_expt_cases-61.dl
Solving...
UNSATISFIABLE

Models       : 0
Calls        : 1
Time         : 0.288s (Solving: 0.12s 1st Model: 0.00s Unsat: 0.12s)
CPU Time     : 0.288s
